
Gurobi 9.1.1 (win64, Java) logging started Sat Apr 10 11:45:23 2021

Academic license - for non-commercial use only - expires 2021-04-30

Gurobi 9.1.1 (win64, Java) logging started Sat Apr 10 11:46:24 2021

Academic license - for non-commercial use only - expires 2021-04-30
Read LP format model from file GurobiElaborato/src/it/unibs/eliapitozzi/ro/defproblema/problema.lp
Reading time = 0.00 seconds
: 2 rows, 3 columns, 5 nonzeros
Gurobi Optimizer version 9.1.1 build v9.1.1rc0 (win64)
Thread count: 2 physical cores, 4 logical processors, using up to 4 threads
Optimize a model with 2 rows, 3 columns and 5 nonzeros
Model fingerprint: 0x47434d00
Model has 1 quadratic constraint
Variable types: 0 continuous, 3 integer (0 binary)
Coefficient statistics:
  Matrix range     [1e+00, 5e+00]
  QMatrix range    [1e+00, 3e+00]
  QLMatrix range   [1e+00, 1e+00]
  Objective range  [1e+00, 1e+00]
  Bounds range     [2e+00, 5e+00]
  RHS range        [1e+00, 1e+01]
  QRHS range       [5e+00, 5e+00]
Variable types: 0 continuous, 3 integer (0 binary)

Root relaxation: objective 5.500000e+00, 1 iterations, 0.00 seconds

    Nodes    |    Current Node    |     Objective Bounds      |     Work
 Expl Unexpl |  Obj  Depth IntInf | Incumbent    BestBd   Gap | It/Node Time

     0     0    5.50000    0    1          -    5.50000      -     -    0s
*    0     0               0       5.0000000    5.00000  0.00%     -    0s

Cutting planes:
  MIR: 1

Explored 1 nodes (2 simplex iterations) in 0.01 seconds
Thread count was 4 (of 4 available processors)

Solution count 1: 5 

Optimal solution found (tolerance 1.00e-04)
Best objective 5.000000000000e+00, best bound 5.000000000000e+00, gap 0.0000%

Gurobi 9.1.1 (win64, Java) logging started Sat Apr 10 11:57:55 2021

Academic license - for non-commercial use only - expires 2021-04-30
Read LP format model from file GurobiElaborato/src/it/unibs/eliapitozzi/ro/defproblema/problema.lp
Reading time = 0.00 seconds
: 2 rows, 3 columns, 5 nonzeros

Gurobi 9.1.1 (win64, Java) logging started Sat Apr 10 12:00:58 2021

Academic license - for non-commercial use only - expires 2021-04-30
Read LP format model from file GurobiElaborato/src/it/unibs/eliapitozzi/ro/defproblema/problema.lp
Reading time = 0.00 seconds
: 2 rows, 3 columns, 5 nonzeros

Gurobi 9.1.1 (win64, Java) logging started Sat Apr 10 12:02:50 2021

Academic license - for non-commercial use only - expires 2021-04-30
Read LP format model from file GurobiElaborato/src/it/unibs/eliapitozzi/ro/defproblema/problema.lp
Reading time = 0.00 seconds
: 2 rows, 3 columns, 5 nonzeros
Gurobi Optimizer version 9.1.1 build v9.1.1rc0 (win64)
Thread count: 2 physical cores, 4 logical processors, using up to 4 threads
Optimize a model with 2 rows, 3 columns and 5 nonzeros
Model fingerprint: 0x46eb31ce
Model has 1 quadratic constraint
Variable types: 0 continuous, 0 integer (0 binary)
Semi-Variable types: 3 continuous, 0 integer
Coefficient statistics:
  Matrix range     [1e+00, 5e+00]
  QMatrix range    [1e+00, 3e+00]
  QLMatrix range   [1e+00, 1e+00]
  Objective range  [1e+00, 1e+00]
  Bounds range     [2e+00, 5e+00]
  RHS range        [1e+00, 1e+01]
  QRHS range       [5e+00, 5e+00]
Variable types: 3 continuous, 1 integer (1 binary)

Root relaxation: objective 5.500000e+00, 2 iterations, 0.00 seconds

    Nodes    |    Current Node    |     Objective Bounds      |     Work
 Expl Unexpl |  Obj  Depth IntInf | Incumbent    BestBd   Gap | It/Node Time

*    0     0               0       5.5000000    5.50000  0.00%     -    0s

Explored 0 nodes (2 simplex iterations) in 0.01 seconds
Thread count was 4 (of 4 available processors)

Solution count 1: 5.5 

Optimal solution found (tolerance 1.00e-04)
Best objective 5.500000000000e+00, best bound 5.500000000000e+00, gap 0.0000%

Gurobi 9.1.1 (win64, Java) logging started Sat Apr 10 12:03:46 2021

Academic license - for non-commercial use only - expires 2021-04-30
Read LP format model from file GurobiElaborato/src/it/unibs/eliapitozzi/ro/defproblema/problema.lp
Reading time = 0.00 seconds
: 2 rows, 3 columns, 5 nonzeros
Gurobi Optimizer version 9.1.1 build v9.1.1rc0 (win64)
Thread count: 2 physical cores, 4 logical processors, using up to 4 threads
Optimize a model with 2 rows, 3 columns and 5 nonzeros
Model fingerprint: 0x46eb31ce
Model has 1 quadratic constraint
Variable types: 0 continuous, 0 integer (0 binary)
Semi-Variable types: 3 continuous, 0 integer
Coefficient statistics:
  Matrix range     [1e+00, 5e+00]
  QMatrix range    [1e+00, 3e+00]
  QLMatrix range   [1e+00, 1e+00]
  Objective range  [1e+00, 1e+00]
  Bounds range     [2e+00, 5e+00]
  RHS range        [1e+00, 1e+01]
  QRHS range       [5e+00, 5e+00]
Variable types: 3 continuous, 1 integer (1 binary)

Root relaxation: objective 5.500000e+00, 2 iterations, 0.00 seconds

    Nodes    |    Current Node    |     Objective Bounds      |     Work
 Expl Unexpl |  Obj  Depth IntInf | Incumbent    BestBd   Gap | It/Node Time

*    0     0               0       5.5000000    5.50000  0.00%     -    0s

Explored 0 nodes (2 simplex iterations) in 0.00 seconds
Thread count was 4 (of 4 available processors)

Solution count 1: 5.5 

Optimal solution found (tolerance 1.00e-04)
Best objective 5.500000000000e+00, best bound 5.500000000000e+00, gap 0.0000%

Gurobi 9.1.1 (win64, Java) logging started Sat Apr 10 12:04:17 2021

Academic license - for non-commercial use only - expires 2021-04-30
Read LP format model from file GurobiElaborato/src/it/unibs/eliapitozzi/ro/defproblema/problema.lp
Reading time = 0.01 seconds
: 2 rows, 3 columns, 5 nonzeros
Gurobi Optimizer version 9.1.1 build v9.1.1rc0 (win64)
Thread count: 2 physical cores, 4 logical processors, using up to 4 threads
Optimize a model with 2 rows, 3 columns and 5 nonzeros
Model fingerprint: 0x46eb31ce
Model has 1 quadratic constraint
Variable types: 0 continuous, 0 integer (0 binary)
Semi-Variable types: 3 continuous, 0 integer
Coefficient statistics:
  Matrix range     [1e+00, 5e+00]
  QMatrix range    [1e+00, 3e+00]
  QLMatrix range   [1e+00, 1e+00]
  Objective range  [1e+00, 1e+00]
  Bounds range     [2e+00, 5e+00]
  RHS range        [1e+00, 1e+01]
  QRHS range       [5e+00, 5e+00]
Variable types: 3 continuous, 1 integer (1 binary)

Root relaxation: objective 5.500000e+00, 2 iterations, 0.00 seconds

    Nodes    |    Current Node    |     Objective Bounds      |     Work
 Expl Unexpl |  Obj  Depth IntInf | Incumbent    BestBd   Gap | It/Node Time

*    0     0               0       5.5000000    5.50000  0.00%     -    0s

Explored 0 nodes (2 simplex iterations) in 0.01 seconds
Thread count was 4 (of 4 available processors)

Solution count 1: 5.5 

Optimal solution found (tolerance 1.00e-04)
Best objective 5.500000000000e+00, best bound 5.500000000000e+00, gap 0.0000%

Gurobi 9.1.1 (win64, Java) logging started Sat Apr 10 12:05:49 2021

Academic license - for non-commercial use only - expires 2021-04-30
Error reading LP format file GurobiElaborato/src/it/unibs/eliapitozzi/ro/defproblema/problema.lp at line 13
Unrecognized variable bound
Neighboring tokens: " Continuos x y z End "


Gurobi 9.1.1 (win64, Java) logging started Sat Apr 10 12:06:32 2021

Academic license - for non-commercial use only - expires 2021-04-30
Read LP format model from file GurobiElaborato/src/it/unibs/eliapitozzi/ro/defproblema/problema.lp
Reading time = 0.00 seconds
: 2 rows, 3 columns, 5 nonzeros
Gurobi Optimizer version 9.1.1 build v9.1.1rc0 (win64)
Thread count: 2 physical cores, 4 logical processors, using up to 4 threads
Optimize a model with 2 rows, 3 columns and 5 nonzeros
Model fingerprint: 0x6a781159
Model has 1 quadratic constraint
Coefficient statistics:
  Matrix range     [1e+00, 5e+00]
  QMatrix range    [1e+00, 3e+00]
  QLMatrix range   [1e+00, 1e+00]
  Objective range  [1e+00, 1e+00]
  Bounds range     [2e+00, 5e+00]
  RHS range        [1e+00, 1e+01]
  QRHS range       [5e+00, 5e+00]
Warning: Only barrier available for SOCP models
Presolve time: 0.00s
Presolved: 6 rows, 7 columns, 15 nonzeros
Presolved model has 1 second-order cone constraint
Ordering time: 0.00s

Barrier statistics:
 AA' NZ     : 1.300e+01
 Factor NZ  : 2.100e+01
 Factor Ops : 9.100e+01 (less than 1 second per iteration)
 Threads    : 1

                  Objective                Residual
Iter       Primal          Dual         Primal    Dual     Compl     Time
   0   5.95216501e+00  3.92372881e+00  4.35e-01 4.48e+00  2.38e+00     0s
   1   4.64089422e+00  5.62226198e+00  4.78e-07 2.17e-01  1.96e-01     0s
   2   5.47745691e+00  5.51740265e+00  2.27e-08 2.39e-07  4.44e-03     0s
   3   5.49997722e+00  5.50001960e+00  4.00e-13 2.63e-10  4.71e-06     0s
   4   5.49999998e+00  5.50000003e+00  3.55e-15 2.90e-13  6.04e-09     0s

Barrier solved model in 4 iterations and 0.01 seconds
Optimal objective 5.49999998e+00


Gurobi 9.1.1 (win64, Java) logging started Sat Apr 10 12:08:42 2021

Academic license - for non-commercial use only - expires 2021-04-30
Read LP format model from file GurobiElaborato/src/it/unibs/eliapitozzi/ro/defproblema/problema.lp
Reading time = 0.00 seconds
: 2 rows, 3 columns, 5 nonzeros
Gurobi Optimizer version 9.1.1 build v9.1.1rc0 (win64)
Thread count: 2 physical cores, 4 logical processors, using up to 4 threads
Optimize a model with 2 rows, 3 columns and 5 nonzeros
Model fingerprint: 0x6a781159
Model has 1 quadratic constraint
Coefficient statistics:
  Matrix range     [1e+00, 5e+00]
  QMatrix range    [1e+00, 3e+00]
  QLMatrix range   [1e+00, 1e+00]
  Objective range  [1e+00, 1e+00]
  Bounds range     [2e+00, 5e+00]
  RHS range        [1e+00, 1e+01]
  QRHS range       [5e+00, 5e+00]
Warning: Only barrier available for SOCP models
Presolve time: 0.00s
Presolved: 6 rows, 7 columns, 15 nonzeros
Presolved model has 1 second-order cone constraint
Ordering time: 0.00s

Barrier statistics:
 AA' NZ     : 1.300e+01
 Factor NZ  : 2.100e+01
 Factor Ops : 9.100e+01 (less than 1 second per iteration)
 Threads    : 1

                  Objective                Residual
Iter       Primal          Dual         Primal    Dual     Compl     Time
   0   5.95216501e+00  3.92372881e+00  4.35e-01 4.48e+00  2.38e+00     0s
   1   4.64089422e+00  5.62226198e+00  4.78e-07 2.17e-01  1.96e-01     0s
   2   5.47745691e+00  5.51740265e+00  2.27e-08 2.39e-07  4.44e-03     0s
   3   5.49997722e+00  5.50001960e+00  4.00e-13 2.63e-10  4.71e-06     0s
   4   5.49999998e+00  5.50000003e+00  3.55e-15 2.90e-13  6.04e-09     0s

Barrier solved model in 4 iterations and 0.00 seconds
Optimal objective 5.49999998e+00


Gurobi 9.1.1 (win64, Java) logging started Sat Apr 10 12:15:22 2021

Academic license - for non-commercial use only - expires 2021-04-30
Read LP format model from file GurobiElaborato/src/it/unibs/eliapitozzi/ro/defproblema/problema.lp
Reading time = 0.00 seconds
: 2 rows, 3 columns, 5 nonzeros
Gurobi Optimizer version 9.1.1 build v9.1.1rc0 (win64)
Thread count: 2 physical cores, 4 logical processors, using up to 4 threads
Optimize a model with 2 rows, 3 columns and 5 nonzeros
Model fingerprint: 0x6a781159
Model has 1 quadratic constraint
Coefficient statistics:
  Matrix range     [1e+00, 5e+00]
  QMatrix range    [1e+00, 3e+00]
  QLMatrix range   [1e+00, 1e+00]
  Objective range  [1e+00, 1e+00]
  Bounds range     [2e+00, 5e+00]
  RHS range        [1e+00, 1e+01]
  QRHS range       [5e+00, 5e+00]
Warning: Only barrier available for SOCP models
Presolve time: 0.00s
Presolved: 6 rows, 7 columns, 15 nonzeros
Presolved model has 1 second-order cone constraint
Ordering time: 0.00s

Barrier statistics:
 AA' NZ     : 1.300e+01
 Factor NZ  : 2.100e+01
 Factor Ops : 9.100e+01 (less than 1 second per iteration)
 Threads    : 1

                  Objective                Residual
Iter       Primal          Dual         Primal    Dual     Compl     Time
   0   5.95216501e+00  3.92372881e+00  4.35e-01 4.48e+00  2.38e+00     0s
   1   4.64089422e+00  5.62226198e+00  4.78e-07 2.17e-01  1.96e-01     0s
   2   5.47745691e+00  5.51740265e+00  2.27e-08 2.39e-07  4.44e-03     0s
   3   5.49997722e+00  5.50001960e+00  4.00e-13 2.63e-10  4.71e-06     0s
   4   5.49999998e+00  5.50000003e+00  3.55e-15 2.90e-13  6.04e-09     0s

Barrier solved model in 4 iterations and 0.01 seconds
Optimal objective 5.49999998e+00


Gurobi 9.1.1 (win64, Java) logging started Sat Apr 10 12:18:18 2021

Academic license - for non-commercial use only - expires 2021-04-30
Read LP format model from file GurobiElaborato/src/it/unibs/eliapitozzi/ro/defproblema/problema.lp
Reading time = 0.01 seconds
: 2 rows, 3 columns, 5 nonzeros
Gurobi Optimizer version 9.1.1 build v9.1.1rc0 (win64)
Thread count: 2 physical cores, 4 logical processors, using up to 4 threads
Optimize a model with 2 rows, 3 columns and 5 nonzeros
Model fingerprint: 0x6a781159
Model has 1 quadratic constraint
Coefficient statistics:
  Matrix range     [1e+00, 5e+00]
  QMatrix range    [1e+00, 3e+00]
  QLMatrix range   [1e+00, 1e+00]
  Objective range  [1e+00, 1e+00]
  Bounds range     [2e+00, 5e+00]
  RHS range        [1e+00, 1e+01]
  QRHS range       [5e+00, 5e+00]
Warning: Only barrier available for SOCP models
Presolve time: 0.00s
Presolved: 6 rows, 7 columns, 15 nonzeros
Presolved model has 1 second-order cone constraint
Ordering time: 0.00s

Barrier statistics:
 AA' NZ     : 1.300e+01
 Factor NZ  : 2.100e+01
 Factor Ops : 9.100e+01 (less than 1 second per iteration)
 Threads    : 1

                  Objective                Residual
Iter       Primal          Dual         Primal    Dual     Compl     Time
   0   5.95216501e+00  3.92372881e+00  4.35e-01 4.48e+00  2.38e+00     0s
   1   4.64089422e+00  5.62226198e+00  4.78e-07 2.17e-01  1.96e-01     0s
   2   5.47745691e+00  5.51740265e+00  2.27e-08 2.39e-07  4.44e-03     0s
   3   5.49997722e+00  5.50001960e+00  4.00e-13 2.63e-10  4.71e-06     0s
   4   5.49999998e+00  5.50000003e+00  3.55e-15 2.90e-13  6.04e-09     0s

Barrier solved model in 4 iterations and 0.01 seconds
Optimal objective 5.49999998e+00


Gurobi 9.1.1 (win64, Java) logging started Sat Apr 10 12:19:18 2021

Academic license - for non-commercial use only - expires 2021-04-30
Read LP format model from file GurobiElaborato/src/it/unibs/eliapitozzi/ro/defproblema/problema.lp
Reading time = 0.01 seconds
: 2 rows, 3 columns, 5 nonzeros
Gurobi Optimizer version 9.1.1 build v9.1.1rc0 (win64)
Thread count: 2 physical cores, 4 logical processors, using up to 4 threads
Optimize a model with 2 rows, 3 columns and 5 nonzeros
Model fingerprint: 0x6a781159
Model has 1 quadratic constraint
Coefficient statistics:
  Matrix range     [1e+00, 5e+00]
  QMatrix range    [1e+00, 3e+00]
  QLMatrix range   [1e+00, 1e+00]
  Objective range  [1e+00, 1e+00]
  Bounds range     [2e+00, 5e+00]
  RHS range        [1e+00, 1e+01]
  QRHS range       [5e+00, 5e+00]
Warning: Only barrier available for SOCP models
Presolve time: 0.00s
Presolved: 6 rows, 7 columns, 15 nonzeros
Presolved model has 1 second-order cone constraint
Ordering time: 0.00s

Barrier statistics:
 AA' NZ     : 1.300e+01
 Factor NZ  : 2.100e+01
 Factor Ops : 9.100e+01 (less than 1 second per iteration)
 Threads    : 1

                  Objective                Residual
Iter       Primal          Dual         Primal    Dual     Compl     Time
   0   5.95216501e+00  3.92372881e+00  4.35e-01 4.48e+00  2.38e+00     0s
   1   4.64089422e+00  5.62226198e+00  4.78e-07 2.17e-01  1.96e-01     0s
   2   5.47745691e+00  5.51740265e+00  2.27e-08 2.39e-07  4.44e-03     0s
   3   5.49997722e+00  5.50001960e+00  4.00e-13 2.63e-10  4.71e-06     0s
   4   5.49999998e+00  5.50000003e+00  3.55e-15 2.90e-13  6.04e-09     0s

Barrier solved model in 4 iterations and 0.00 seconds
Optimal objective 5.49999998e+00


Gurobi 9.1.1 (win64, Java) logging started Sat Apr 10 12:20:51 2021

Academic license - for non-commercial use only - expires 2021-04-30
Read LP format model from file GurobiElaborato/src/it/unibs/eliapitozzi/ro/defproblema/problema.lp
Reading time = 0.00 seconds
: 2 rows, 3 columns, 5 nonzeros
Gurobi Optimizer version 9.1.1 build v9.1.1rc0 (win64)
Thread count: 2 physical cores, 4 logical processors, using up to 4 threads
Optimize a model with 2 rows, 3 columns and 5 nonzeros
Model fingerprint: 0x6a781159
Model has 1 quadratic constraint
Coefficient statistics:
  Matrix range     [1e+00, 5e+00]
  QMatrix range    [1e+00, 3e+00]
  QLMatrix range   [1e+00, 1e+00]
  Objective range  [1e+00, 1e+00]
  Bounds range     [2e+00, 5e+00]
  RHS range        [1e+00, 1e+01]
  QRHS range       [5e+00, 5e+00]
Warning: Only barrier available for SOCP models
Presolve time: 0.00s
Presolved: 6 rows, 7 columns, 15 nonzeros
Presolved model has 1 second-order cone constraint
Ordering time: 0.00s

Barrier statistics:
 AA' NZ     : 1.300e+01
 Factor NZ  : 2.100e+01
 Factor Ops : 9.100e+01 (less than 1 second per iteration)
 Threads    : 1

                  Objective                Residual
Iter       Primal          Dual         Primal    Dual     Compl     Time
   0   5.95216501e+00  3.92372881e+00  4.35e-01 4.48e+00  2.38e+00     0s
   1   4.64089422e+00  5.62226198e+00  4.78e-07 2.17e-01  1.96e-01     0s
   2   5.47745691e+00  5.51740265e+00  2.27e-08 2.39e-07  4.44e-03     0s
   3   5.49997722e+00  5.50001960e+00  4.00e-13 2.63e-10  4.71e-06     0s
   4   5.49999998e+00  5.50000003e+00  3.55e-15 2.90e-13  6.04e-09     0s

Barrier solved model in 4 iterations and 0.01 seconds
Optimal objective 5.49999998e+00

